Ni   C    O    H 
   1.0000000000000000     
   9.9560634791065894   0.0000000000000000   0.0000000000000000
   4.9780317395532903   8.6222038945967903   0.0000000000000000
   0.0000000000000000   0.0000000000000000  36.0968188426423993
Ni   C    O    H 
64  5  2  3  
Selective dynamics
Direct
  0.0000000000000000  0.0000000000000000  0.4155490838511255 F F F
  0.2500000000224318  0.0000000000000000  0.4155490838511255 F F F
  0.5000000000448708  0.0000000000000000  0.4155490838511255 F F F
  0.7499999999668603  0.0000000000000000  0.4155490838511255 F F F
  0.9999999999908766  0.2500000000406857  0.4155490838511255 F F F
  0.2500000000133085  0.2500000000406857  0.4155490838511255 F F F
  0.4999999999352980  0.2500000000406857  0.4155490838511255 F F F
  0.7499999999577369  0.2500000000406857  0.4155490838511255 F F F
  0.0000000000397407  0.4999999999653895  0.4155490838511255 F F F
  0.2500000000621725  0.4999999999653895  0.4155490838511255 F F F
  0.4999999999841620  0.4999999999653895  0.4155490838511255 F F F
  0.7500000000066009  0.4999999999653895  0.4155490838511255 F F F
  0.0000000000306102  0.7500000000060751  0.4155490838511255 F F F
  0.2499999999526068  0.7500000000060751  0.4155490838511255 F F F
  0.4999999999750386  0.7500000000060751  0.4155490838511255 F F F
  0.7499999995957083  0.7500000000060751  0.4155490838511255 F F F
  0.0833333333570963  0.0833333333082322  0.4718496946849839 F F F
  0.3333333333795352  0.0833333333082322  0.4718496946849839 F F F
  0.5833333333015247  0.0833333333082322  0.4718496946849839 F F F
  0.8333333333239565  0.0833333333082322  0.4718496946849839 F F F
  0.0833333333479729  0.3333333333489179  0.4718496946849839 F F F
  0.3333333333704047  0.3333333333489179  0.4718496946849839 F F F
  0.5833333332924013  0.3333333333489179  0.4718496946849839 F F F
  0.8333333333148332  0.3333333333489179  0.4718496946849839 F F F
  0.0833333333388495  0.5833333333896107  0.4718496946849839 F F F
  0.3333333332608390  0.5833333333896107  0.4718496946849839 F F F
  0.5833333332832709  0.5833333333896107  0.4718496946849839 F F F
  0.8333333329039405  0.5833333333896107  0.4718496946849839 F F F
  0.0833333333877135  0.8333333333143145  0.4718496946849839 F F F
  0.3333333333097031  0.8333333333143145  0.4718496946849839 F F F
  0.5833333333321349  0.8333333333143145  0.4718496946849839 F F F
  0.8333333334550090  0.8333333333143145  0.4718496946849839 F F F
  0.9166666666917678  0.1666666666164716  0.5281503055188423 F F F
  0.1666666667141996  0.1666666666164716  0.5281503055188423 F F F
  0.4166666667366314  0.1666666666164716  0.5281503055188423 F F F
  0.6666666666586281  0.1666666666164716  0.5281503055188423 F F F
  0.9166666666826372  0.4166666666571572  0.5281503055188423 F F F
  0.1666666667050691  0.4166666666571572  0.5281503055188423 F F F
  0.4166666666270658  0.4166666666571572  0.5281503055188423 F F F
  0.6666666666494976  0.4166666666571572  0.5281503055188423 F F F
  0.9166666666735140  0.6666666666978429  0.5281503055188423 F F F
  0.1666666666959458  0.6666666666978429  0.5281503055188423 F F F
  0.4166666666179353  0.6666666666978429  0.5281503055188423 F F F
  0.6666666666403742  0.6666666666978429  0.5281503055188423 F F F
  0.9166666667223780  0.9166666666225468  0.5281503055188423 F F F
  0.1666666666443675  0.9166666666225468  0.5281503055188423 F F F
  0.4166666666667993  0.9166666666225468  0.5281503055188423 F F F
  0.6666666662874690  0.9166666666225468  0.5281503055188423 F F F
  0.0002593484493601  0.0003578702628959  0.5825631650560236 T T T
  0.2510861485333102  0.0019500432265297  0.5830279693552984 T T T
  0.5008061173819469  0.9995863148015460  0.5832836506577839 T T T
  0.7507309271159355  0.9959850704929890  0.5827900346689839 T T T
  0.0049507114305179  0.2478731075645034  0.5824910278198027 T T T
  0.2502912965788824  0.2493141129370447  0.5833469627025359 T T T
  0.5023344288240157  0.2448240265758625  0.5832528304914771 T T T
  0.7586032260596645  0.2404850138431318  0.5848140662516510 T T T
  0.0004515165587569  0.4991084622076155  0.5829755306195801 T T T
  0.2502891642064831  0.4956929373758897  0.5861064248595153 T T T
  0.4936312760615299  0.5079873564920916  0.5831482939783637 T T T
  0.7511525693571917  0.4930686104241572  0.5868236087794489 T T T
  0.9963499232299070  0.7495747123851236  0.5826917995829120 T T T
  0.2414547295400515  0.7599070365099587  0.5848226224110891 T T T
  0.5010123882295944  0.7552155581238114  0.5823759678172268 T T T
  0.7512427452286529  0.7475454060243896  0.5830452858098247 T T T
  0.3256315964681435  0.5621391550826368  0.6261065754402160 T T T
  0.4881900132035129  0.4713144514497549  0.6373518363467274 T T T
  0.5959046295622251  0.5279883637049363  0.6376782979091425 T T T
  0.7264521234812913  0.2584309394494170  0.6385816092469077 T T T
  0.7494916877436234  0.3919087785210473  0.6388324318919769 T T T
  0.2453850800881225  0.7038412258981994  0.6378030916667279 T T T
  0.5634102200961206  0.3125793704068306  0.6437075610829875 T T T
  0.7978510594076610  0.1530806217207599  0.6544809740655937 T T T
  0.8505416042011886  0.3880230345025475  0.6517148799267365 T T T
  0.5644478099644934  0.6443540544293525  0.6469478060676744 T T T
