Ni   C    O    H                        
   1.0000000000000000     
     9.9560634791065894    0.0000000000000000    0.0000000000000000
     4.9780317395532903    8.6222038945967903    0.0000000000000000
     0.0000000000000000    0.0000000000000000   36.0968188426423993
   Ni   C    O    H 
    64     5     2     3
Selective dynamics
Direct
  0.0000000000000000  0.0000000000000000  0.4155490838511255   F   F   F
  0.2500000000224318  0.0000000000000000  0.4155490838511255   F   F   F
  0.5000000000448708  0.0000000000000000  0.4155490838511255   F   F   F
  0.7499999999668603  0.0000000000000000  0.4155490838511255   F   F   F
  0.9999999999908766  0.2500000000406857  0.4155490838511255   F   F   F
  0.2500000000133085  0.2500000000406857  0.4155490838511255   F   F   F
  0.4999999999352980  0.2500000000406857  0.4155490838511255   F   F   F
  0.7499999999577370  0.2500000000406857  0.4155490838511255   F   F   F
  0.0000000000397595  0.4999999999653895  0.4155490838511255   F   F   F
  0.2500000000621725  0.4999999999653895  0.4155490838511255   F   F   F
  0.4999999999841620  0.4999999999653895  0.4155490838511255   F   F   F
  0.7500000000066008  0.4999999999653895  0.4155490838511255   F   F   F
  0.0000000000306102  0.7500000000060754  0.4155490838511255   F   F   F
  0.2499999999526067  0.7500000000060754  0.4155490838511255   F   F   F
  0.4999999999750385  0.7500000000060754  0.4155490838511255   F   F   F
  0.7499999995957086  0.7500000000060754  0.4155490838511255   F   F   F
  0.0833333333570963  0.0833333333082323  0.4718496946849840   F   F   F
  0.3333333333795352  0.0833333333082323  0.4718496946849840   F   F   F
  0.5833333333015247  0.0833333333082323  0.4718496946849840   F   F   F
  0.8333333333239565  0.0833333333082323  0.4718496946849840   F   F   F
  0.0833333333479728  0.3333333333489182  0.4718496946849840   F   F   F
  0.3333333333704048  0.3333333333489182  0.4718496946849840   F   F   F
  0.5833333332924013  0.3333333333489182  0.4718496946849840   F   F   F
  0.8333333333148331  0.3333333333489182  0.4718496946849840   F   F   F
  0.0833333333388495  0.5833333333896107  0.4718496946849840   F   F   F
  0.3333333332608390  0.5833333333896107  0.4718496946849840   F   F   F
  0.5833333332832710  0.5833333333896107  0.4718496946849840   F   F   F
  0.8333333329039405  0.5833333333896107  0.4718496946849840   F   F   F
  0.0833333333877136  0.8333333333143145  0.4718496946849840   F   F   F
  0.3333333333097031  0.8333333333143145  0.4718496946849840   F   F   F
  0.5833333333321350  0.8333333333143145  0.4718496946849840   F   F   F
  0.8333333334550089  0.8333333333143145  0.4718496946849840   F   F   F
  0.9166666666917679  0.1666666666164716  0.5281503055188423   F   F   F
  0.1666666667141997  0.1666666666164716  0.5281503055188423   F   F   F
  0.4166666667366314  0.1666666666164716  0.5281503055188423   F   F   F
  0.6666666666586282  0.1666666666164716  0.5281503055188423   F   F   F
  0.9166666666826372  0.4166666666571572  0.5281503055188423   F   F   F
  0.1666666667050692  0.4166666666571572  0.5281503055188423   F   F   F
  0.4166666666270658  0.4166666666571572  0.5281503055188423   F   F   F
  0.6666666666494976  0.4166666666571572  0.5281503055188423   F   F   F
  0.9166666666735143  0.6666666666978436  0.5281503055188423   F   F   F
  0.1666666666959456  0.6666666666978436  0.5281503055188423   F   F   F
  0.4166666666179353  0.6666666666978436  0.5281503055188423   F   F   F
  0.6666666666403739  0.6666666666978436  0.5281503055188423   F   F   F
  0.9166666667223782  0.9166666666225476  0.5281503055188423   F   F   F
  0.1666666666443674  0.9166666666225476  0.5281503055188423   F   F   F
  0.4166666666667990  0.9166666666225476  0.5281503055188423   F   F   F
  0.6666666662874692  0.9166666666225476  0.5281503055188423   F   F   F
  0.0007544447956605  0.0022502701142920  0.5828109652640585   T   T   T
  0.2511644496643725  0.0014018230315297  0.5832152325797105   T   T   T
  0.5011479983050647  0.9973128309169115  0.5829797709194420   T   T   T
  0.7539524968780786  0.9957500939553748  0.5825031898533405   T   T   T
  0.0043097083932397  0.2494195118551933  0.5828070200850861   T   T   T
  0.2494083277353819  0.2507872387698704  0.5828515866841931   T   T   T
  0.5002698925512525  0.2422412148048757  0.5820201321603945   T   T   T
  0.7556096373629450  0.2483289286252319  0.5882916936742626   T   T   T
  0.0036886207808533  0.4993664727335477  0.5831016698563033   T   T   T
  0.2615444295344362  0.5033832596216693  0.5936055103536144   T   T   T
  0.5066133570296751  0.5043629217908382  0.5813334086334427   T   T   T
  0.7562103962516569  0.5001737283803692  0.5831363531062965   T   T   T
  0.0039425118629550  0.7479916908621909  0.5852364324194075   T   T   T
  0.2474000724776951  0.7572597200228537  0.5846338575488970   T   T   T
  0.5002557963351379  0.7546246026137476  0.5826690666279760   T   T   T
  0.7531539083381875  0.7493441397184121  0.5831790522376219   T   T   T
  0.1583182991367256  0.6905128224337345  0.6239323905670559   T   T   T
  0.4355865397859021  0.4437555904924019  0.6269053316992041   T   T   T
  0.5362674400172732  0.5052194484641093  0.6362567297165975   T   T   T
  0.6794500005652947  0.2372897096049011  0.6402756269790391   T   T   T
  0.6917189170921751  0.3727288619187947  0.6418244896864226   T   T   T
  0.1512190255043299  0.7080125622698678  0.6568465992632674   T   T   T
  0.5200928550652069  0.2822592925743504  0.6364076622699552   T   T   T
  0.7448452938429228  0.1296748254990567  0.6555892970821806   T   T   T
  0.7889245027860946  0.3770881791887584  0.6543421626238692   T   T   T
  0.5021520898497415  0.6220171204840358  0.6458565890980940   T   T   T

             NaN             NaN             NaN
             NaN             NaN             NaN
             NaN             NaN             NaN
             NaN             NaN             NaN
             NaN             NaN             NaN
             NaN             NaN             NaN
             NaN             NaN             NaN
             NaN             NaN             NaN
             NaN             NaN             NaN
             NaN             NaN             NaN
             NaN             NaN             NaN
             NaN             NaN             NaN
             NaN             NaN             NaN
             NaN             NaN             NaN
             NaN             NaN             NaN
             NaN             NaN             NaN
             NaN             NaN             NaN
             NaN             NaN             NaN
             NaN             NaN             NaN
             NaN             NaN             NaN
             NaN             NaN             NaN
             NaN             NaN             NaN
             NaN             NaN             NaN
             NaN             NaN             NaN
             NaN             NaN             NaN
             NaN             NaN             NaN
             NaN             NaN             NaN
             NaN             NaN             NaN
             NaN             NaN             NaN
             NaN             NaN             NaN
             NaN             NaN             NaN
             NaN             NaN             NaN
             NaN             NaN             NaN
             NaN             NaN             NaN
             NaN             NaN             NaN
             NaN             NaN             NaN
             NaN             NaN             NaN
             NaN             NaN             NaN
             NaN             NaN             NaN
             NaN             NaN             NaN
             NaN             NaN             NaN
             NaN             NaN             NaN
             NaN             NaN             NaN
             NaN             NaN             NaN
             NaN             NaN             NaN
             NaN             NaN             NaN
             NaN             NaN             NaN
             NaN             NaN             NaN
             NaN             NaN             NaN
             NaN             NaN             NaN
             NaN             NaN             NaN
             NaN             NaN             NaN
             NaN             NaN             NaN
             NaN             NaN             NaN
             NaN             NaN             NaN
             NaN             NaN             NaN
             NaN             NaN             NaN
             NaN             NaN             NaN
             NaN             NaN             NaN
             NaN             NaN             NaN
             NaN             NaN             NaN
             NaN             NaN             NaN
             NaN             NaN             NaN
             NaN             NaN             NaN
             NaN             NaN             NaN
             NaN             NaN             NaN
             NaN             NaN             NaN
             NaN             NaN             NaN
             NaN             NaN             NaN
             NaN             NaN             NaN
             NaN             NaN             NaN
             NaN             NaN             NaN
             NaN             NaN             NaN
             NaN             NaN             NaN
