Ni   C    O    H 
   1.0000000000000000     
   9.9560634791065894   0.0000000000000000   0.0000000000000000
   4.9780317395532903   8.6222038945967903   0.0000000000000000
   0.0000000000000000   0.0000000000000000  36.0968188426423993
Ni   C    O    H 
64  5  2  3  
Selective dynamics
Direct
  0.0000000000000000  0.0000000000000000  0.4155490838511255 F F F
  0.2500000000224318  0.0000000000000000  0.4155490838511255 F F F
  0.5000000000448708  0.0000000000000000  0.4155490838511255 F F F
  0.7499999999668603  0.0000000000000000  0.4155490838511255 F F F
  0.9999999999908766  0.2500000000406857  0.4155490838511255 F F F
  0.2500000000133085  0.2500000000406857  0.4155490838511255 F F F
  0.4999999999352980  0.2500000000406857  0.4155490838511255 F F F
  0.7499999999577369  0.2500000000406857  0.4155490838511255 F F F
  0.0000000000397407  0.4999999999653895  0.4155490838511255 F F F
  0.2500000000621725  0.4999999999653895  0.4155490838511255 F F F
  0.4999999999841620  0.4999999999653895  0.4155490838511255 F F F
  0.7500000000066009  0.4999999999653895  0.4155490838511255 F F F
  0.0000000000306102  0.7500000000060751  0.4155490838511255 F F F
  0.2499999999526068  0.7500000000060751  0.4155490838511255 F F F
  0.4999999999750386  0.7500000000060751  0.4155490838511255 F F F
  0.7499999995957083  0.7500000000060751  0.4155490838511255 F F F
  0.0833333333570963  0.0833333333082322  0.4718496946849839 F F F
  0.3333333333795352  0.0833333333082322  0.4718496946849839 F F F
  0.5833333333015247  0.0833333333082322  0.4718496946849839 F F F
  0.8333333333239565  0.0833333333082322  0.4718496946849839 F F F
  0.0833333333479729  0.3333333333489179  0.4718496946849839 F F F
  0.3333333333704047  0.3333333333489179  0.4718496946849839 F F F
  0.5833333332924013  0.3333333333489179  0.4718496946849839 F F F
  0.8333333333148332  0.3333333333489179  0.4718496946849839 F F F
  0.0833333333388495  0.5833333333896107  0.4718496946849839 F F F
  0.3333333332608390  0.5833333333896107  0.4718496946849839 F F F
  0.5833333332832709  0.5833333333896107  0.4718496946849839 F F F
  0.8333333329039405  0.5833333333896107  0.4718496946849839 F F F
  0.0833333333877135  0.8333333333143145  0.4718496946849839 F F F
  0.3333333333097031  0.8333333333143145  0.4718496946849839 F F F
  0.5833333333321349  0.8333333333143145  0.4718496946849839 F F F
  0.8333333334550090  0.8333333333143145  0.4718496946849839 F F F
  0.9166666666917678  0.1666666666164716  0.5281503055188423 F F F
  0.1666666667141996  0.1666666666164716  0.5281503055188423 F F F
  0.4166666667366314  0.1666666666164716  0.5281503055188423 F F F
  0.6666666666586281  0.1666666666164716  0.5281503055188423 F F F
  0.9166666666826372  0.4166666666571572  0.5281503055188423 F F F
  0.1666666667050691  0.4166666666571572  0.5281503055188423 F F F
  0.4166666666270658  0.4166666666571572  0.5281503055188423 F F F
  0.6666666666494976  0.4166666666571572  0.5281503055188423 F F F
  0.9166666666735140  0.6666666666978429  0.5281503055188423 F F F
  0.1666666666959458  0.6666666666978429  0.5281503055188423 F F F
  0.4166666666179353  0.6666666666978429  0.5281503055188423 F F F
  0.6666666666403742  0.6666666666978429  0.5281503055188423 F F F
  0.9166666667223780  0.9166666666225468  0.5281503055188423 F F F
  0.1666666666443675  0.9166666666225468  0.5281503055188423 F F F
  0.4166666666667993  0.9166666666225468  0.5281503055188423 F F F
  0.6666666662874690  0.9166666666225468  0.5281503055188423 F F F
  0.9997399541211750  0.0031964935298741  0.5826627667479088 T T T
  0.2503901120059479  0.0015254641299037  0.5831902312820627 T T T
  0.4998072845068935  0.9964921252095740  0.5828228253173676 T T T
  0.7524240727073510  0.9966944246290420  0.5823686868650959 T T T
  0.0017197455023174  0.2506227430635194  0.5829665899154878 T T T
  0.2469281958214458  0.2513165615248835  0.5829160895883817 T T T
  0.4976295306866149  0.2429258084246227  0.5812558926666760 T T T
  0.7534075765420383  0.2481977933425955  0.5889683456333817 T T T
  0.0009847675040219  0.4999714490678782  0.5831217956947197 T T T
  0.2545072782576517  0.5037794909541773  0.5950619087851429 T T T
  0.5030008703268550  0.5025458471947493  0.5828956382018866 T T T
  0.7527506659130571  0.5010909550146483  0.5828927240804269 T T T
  0.9998202849465890  0.7495070436768014  0.5844067945795759 T T T
  0.2473163642663585  0.7557950962410124  0.5840152684958788 T T T
  0.4995263894123405  0.7525676442678803  0.5827598464641889 T T T
  0.7512485043681956  0.7495768322351289  0.5831629243359171 T T T
  0.1437205310058465  0.7065374633893831  0.6229560630197037 T T T
  0.4294310897988789  0.4233296801335695  0.6281612953860415 T T T
  0.5272478625751228  0.4852535788970830  0.6386969445414183 T T T
  0.6784630155194933  0.2179095070044625  0.6401261577759728 T T T
  0.6841921956601323  0.3561396843151159  0.6439214345274120 T T T
  0.1342190249820655  0.7330802541259274  0.6555566775715749 T T T
  0.5199255009010459  0.2586286000003789  0.6358793700988108 T T T
  0.7491261502981433  0.1073429309040858  0.6540364397850716 T T T
  0.7788576823847971  0.3632609761976244  0.6570403294280708 T T T
  0.4859029752491528  0.6019631286637935  0.6492633192231495 T T T
